p cnf 50 20
x -2 5 -7 10 11 14 -18 19 20 -21 -22 -23 24 -25 26 29 -36 -41 42 -43 -45 46 -48 0
x -1 4 5 8 -9 -10 -11 -16 -17 18 19 20 22 23 25 -27 -28 29 30 31 -32 33 35 38 40 43 49 0
x 3 6 8 9 10 -13 -18 -19 21 22 23 24 -27 -30 -32 36 -46 -49 50 0
x -1 -2 4 -5 6 -8 -9 -12 -15 17 18 -19 -20 -23 24 -25 -27 -29 32 33 -35 38 39 -42 -43 44 -45 0
x 1 3 -7 8 9 -14 -15 -16 -17 -19 -20 23 25 26 27 28 -30 31 33 -34 35 39 -40 41 -42 43 44 47 -48 49 0
x -1 5 -11 -12 13 14 -18 -24 25 -26 -28 30 31 32 35 41 43 -44 -46 -47 50 0
x -1 -3 4 5 8 11 13 17 -18 19 -21 -23 -26 27 -29 -30 -31 -32 36 40 -41 -42 -49 50 0
x 1 3 4 -5 -6 -8 -10 11 12 -14 15 16 18 -19 23 -25 26 -27 -29 34 35 -37 38 -39 40 41 43 45 46 -47 -50 0
x 5 7 -8 9 -10 -14 15 -16 19 -22 23 25 26 -28 -29 -30 -31 32 -34 -35 -36 -38 -40 42 43 -44 -46 47 48 -50 0
x 2 4 5 7 -8 -9 12 13 14 -15 18 -20 -22 28 -30 -31 32 33 35 -36 39 40 -41 42 -43 -44 47 0
x 1 3 5 -9 10 -11 -12 13 14 -17 -19 21 -22 -23 -25 26 -27 29 -33 -34 -35 37 -39 -41 -42 -43 44 -45 -47 49 0
x -1 -2 -4 9 11 -15 16 17 19 20 -21 22 -23 24 -28 -30 33 -34 35 36 -42 -44 45 46 49 0
x 1 2 -3 5 -6 7 10 -11 -13 17 -21 26 -27 28 31 32 -36 38 40 -44 -45 46 -48 -49 -50 0
x -1 -2 3 4 -6 9 11 12 -22 23 25 -30 -32 -34 -35 -38 -41 -42 45 46 -49 0
x 1 -3 10 11 12 -14 16 -18 -19 24 -25 -27 31 -33 34 -35 36 -37 41 -46 47 -49 0
x -1 -4 5 12 14 15 17 19 -22 -25 31 33 35 -37 -39 40 -44 -48 49 0
x -4 -6 -8 10 12 17 20 22 -25 26 -29 -31 -32 -33 -38 39 41 -46 -49 50 0
x -2 3 5 7 -8 -9 12 -13 14 -15 -20 21 -28 -31 32 -33 -34 35 -36 37 -38 41 -44 -46 -48 50 0
x -11 13 -14 -15 -17 18 21 22 23 -25 -28 31 -32 34 35 -36 -39 -41 -42 44 46 -49 0
x -1 -2 -3 -4 6 8 10 13 -14 16 20 -21 -23 25 -26 -30 -34 36 37 -39 -43 -44 46 -47 0
g -20